NAME          
ROWS
 N  OBJ
 L  c1
 L  c2
 L  c3
COLUMNS
    MARKER    'MARKER'                 'INTORG'
    x[1]      c1        91
    x[1]      c2        75
    x[1]      c3        602
    x[1]      OBJ       -510
    x[2]      c1        50
    x[2]      c2        271
    x[2]      c3        455
    x[2]      OBJ       -268
    x[3]      c1        918
    x[3]      c2        643
    x[3]      c3        822
    x[3]      OBJ       -170
    x[4]      c1        849
    x[4]      c2        994
    x[4]      c3        734
    x[4]      OBJ       -841
    x[5]      c1        549
    x[5]      c2        805
    x[5]      c3        431
    x[5]      OBJ       -116
    x[6]      c1        554
    x[6]      c2        432
    x[6]      c3        507
    x[6]      OBJ       -300
    x[7]      c1        686
    x[7]      c2        877
    x[7]      c3        432
    x[7]      OBJ       -833
    x[8]      c1        836
    x[8]      c2        747
    x[8]      c3        211
    x[8]      OBJ       -332
    x[9]      c1        259
    x[9]      c2        878
    x[9]      c3        1
    x[9]      OBJ       -8
    x[10]     c1        221
    x[10]     c2        915
    x[10]     c3        972
    x[10]     OBJ       -763
    x[11]     c1        979
    x[11]     c2        386
    x[11]     c3        30
    x[11]     OBJ       -42
    x[12]     c1        928
    x[12]     c2        169
    x[12]     c3        828
    x[12]     OBJ       -239
    x[13]     c1        178
    x[13]     c2        815
    x[13]     c3        651
    x[13]     OBJ       -311
    x[14]     c1        795
    x[14]     c2        745
    x[14]     c3        56
    x[14]     OBJ       -821
    x[15]     c1        91
    x[15]     c2        493
    x[15]     c3        688
    x[15]     OBJ       -803
RHS
    rhs       c1        3992
    rhs       c2        4622
    rhs       c3        3710
RANGES
BOUNDS
 BV bounds    x[1]
 BV bounds    x[2]
 BV bounds    x[3]
 BV bounds    x[4]
 BV bounds    x[5]
 BV bounds    x[6]
 BV bounds    x[7]
 BV bounds    x[8]
 BV bounds    x[9]
 BV bounds    x[10]
 BV bounds    x[11]
 BV bounds    x[12]
 BV bounds    x[13]
 BV bounds    x[14]
 BV bounds    x[15]
ENDATA
